NAME           caca-example
ROWS
 N  obj     
 G  c1
 G  c2
 G  c3  
COLUMNS
    x1        obj                             21
    x2        obj                             14
    x1        c1                              2
    x2        c1                              3
    x1        c2                              3
    x2        c2                              1
    x1        c3                              1
    x2        c3                              3
RHS
    rhs       c1                              12
    rhs       c2                              6
    rhs       c3                              9
BOUNDS
ENDATA